SDVRP instances/p04/p04_00_tsplib0_splitx10_0.vrp
NAME:.\SDVRP_splitx10_
BEST_KNOWN: 0
COMMENT: 0
DIMENSION: 524
CAPACITY: 2000
EDGE_WEIGHT_FORMAT: FUNCTION
EDGE_WEIGHT_TYPE: EXACT_2D
NODE_COORD_SECTION
1 0.00000 0.00000
2 2 17
3 2 17
4 2 17
5 2 17
6 14 14
7 14 14
8 17 29
9 17 29
10 17 29
11 17 29
12 -15 -9
13 -15 -9
14 -15 -9
15 -15 -9
16 -15 -9
17 5 -5
18 5 -5
19 -14 12
20 -14 12
21 -14 12
22 -14 12
23 -18 28
24 -18 28
25 -18 28
26 -18 28
27 -18 28
28 -18 28
29 -4 27
30 -4 27
31 -4 27
32 17 -2
33 17 -2
34 16 -14
35 16 -14
36 16 -14
37 7 6
38 7 6
39 7 6
40 7 6
41 7 6
42 7 6
43 -4 -3
44 -4 -3
45 -4 -3
46 -4 -3
47 -4 -3
48 -4 -3
49 -30 -10
50 -30 -10
51 -30 -10
52 -23 7
53 -23 7
54 1 -19
55 17 6
56 17 6
57 17 6
58 17 6
59 -8 -12
60 -8 -12
61 -18 -2
62 -18 -2
63 -22 -22
64 -22 -22
65 -22 -22
66 -22 -22
67 -22 -22
68 22 23
69 22 23
70 22 23
71 22 23
72 22 23
73 27 7
74 27 7
75 27 7
76 27 7
77 7 22
78 7 22
79 7 22
80 7 22
81 -19 22
82 -19 22
83 -19 22
84 -19 22
85 -27 17
86 -28 3
87 -28 3
88 -28 3
89 -28 3
90 -28 3
91 -8 33
92 -8 33
93 -8 33
94 -8 33
95 -5 13
96 -5 13
97 -5 13
98 -5 13
99 8 32
100 8 32
101 8 32
102 23 13
103 23 13
104 23 13
105 23 -8
106 23 -8
107 23 -8
108 23 -8
109 23 -8
110 23 -8
111 2 34
112 2 34
113 3 11
114 3 11
115 11 -25
116 11 -25
117 11 -25
118 26 -2
119 26 -2
120 26 -2
121 26 -2
122 27 28
123 27 28
124 27 28
125 27 28
126 27 28
127 28 34
128 28 34
129 28 34
130 -3 -13
131 -3 -13
132 -3 -13
133 -3 -13
134 -3 -13
135 10 0
136 10 0
137 10 0
138 10 0
139 24 -20
140 24 -20
141 24 -20
142 -30 -29
143 -30 -29
144 -30 -29
145 -30 -29
146 -25 -18
147 -25 -18
148 -25 -18
149 -25 -18
150 -25 -18
151 -14 -25
152 -14 -25
153 -14 -25
154 -30 29
155 -30 29
156 -5 -20
157 -5 -20
158 -5 -20
159 -5 -20
160 4 -25
161 -3 4
162 -3 4
163 -3 4
164 -10 -3
165 -10 -3
166 -10 -3
167 -10 -3
168 -10 20
169 -10 20
170 -10 20
171 -10 20
172 -10 20
173 13 -7
174 13 -7
175 13 -7
176 13 -7
177 13 -7
178 21 2
179 6 14
180 0 -18
181 0 -18
182 0 -18
183 0 -18
184 20 10
185 20 10
186 20 10
187 20 -15
188 20 -15
189 20 -15
190 20 -15
191 20 -15
192 20 -15
193 -20 -5
194 -20 -5
195 -20 -5
196 -20 -5
197 -10 -5
198 -10 -5
199 -15 15
200 -15 15
201 -15 15
202 -25 8
203 -25 8
204 -25 8
205 -25 8
206 -25 8
207 20 25
208 20 25
209 20 25
210 20 25
211 -5 25
212 -5 25
213 -5 25
214 -5 25
215 -15 30
216 -15 30
217 15 0
218 15 0
219 15 0
220 15 0
221 15 0
222 15 0
223 -5 -10
224 -5 -10
225 -5 -10
226 -20 -25
227 -5 -30
228 -5 -30
229 -5 -30
230 -5 -30
231 -25 -15
232 -25 -15
233 -25 -15
234 -25 -15
235 -25 -15
236 -25 -15
237 -30 -5
238 -15 5
239 -15 5
240 -20 25
241 -20 25
242 -20 25
243 -20 25
244 -20 25
245 10 30
246 10 30
247 10 30
248 10 30
249 10 30
250 10 -15
251 10 -15
252 10 -25
253 10 -25
254 10 -25
255 10 -25
256 10 -25
257 20 -30
258 20 -30
259 20 -30
260 20 -30
261 20 -30
262 20 -30
263 30 0
264 30 0
265 30 -15
266 30 -15
267 30 -15
268 10 -5
269 10 -5
270 10 -5
271 10 -5
272 10 -5
273 0 5
274 0 5
275 0 5
276 0 5
277 6 2
278 6 2
279 6 2
280 6 2
281 29 7
282 29 7
283 29 7
284 29 7
285 29 7
286 5 25
287 5 25
288 -4 17
289 -4 17
290 -4 17
291 -4 17
292 -4 17
293 0 34
294 0 34
295 0 34
296 18 17
297 18 17
298 30 20
299 30 20
300 30 20
301 28 30
302 28 30
303 28 30
304 28 30
305 -33 25
306 -33 25
307 -33 25
308 -15 -15
309 -15 -15
310 -15 -15
311 -15 -15
312 -30 -30
313 -30 -30
314 -30 -30
315 -30 -30
316 25 -23
317 25 -23
318 25 -23
319 5 -10
320 5 -10
321 5 -10
322 5 -10
323 5 -10
324 7 -28
325 7 -28
326 7 -28
327 -11 -23
328 -11 -23
329 -11 -23
330 -12 -32
331 -12 -32
332 -12 -32
333 -12 -32
334 -24 -21
335 -24 -21
336 -24 -21
337 -24 -21
338 -24 -21
339 -29 3
340 -29 3
341 -29 3
342 -29 3
343 -33 13
344 -27 21
345 -27 21
346 -27 21
347 -27 21
348 -27 21
349 -22 17
350 -22 17
351 -22 17
352 -22 17
353 -22 17
354 -29 33
355 -29 33
356 12 12
357 12 12
358 12 12
359 14 23
360 -8 8
361 -8 8
362 -8 8
363 -8 8
364 -8 8
365 2 -4
366 2 -4
367 2 -4
368 22 -6
369 22 -6
370 22 -6
371 22 -6
372 22 -6
373 28 -12
374 18 -23
375 18 -23
376 18 -23
377 -3 -23
378 -3 -23
379 -3 -23
380 -3 -23
381 1 -9
382 1 -9
383 1 -9
384 1 -9
385 1 -9
386 -14 -11
387 -14 -11
388 -14 -11
389 -14 -11
390 -14 -11
391 -18 -1
392 -18 -1
393 -23 -11
394 -23 -11
395 -23 -11
396 -11 23
397 -11 23
398 -11 23
399 -11 23
400 -11 23
401 -11 23
402 -8 34
403 -20 42
404 -20 42
405 -20 42
406 -20 42
407 -20 42
408 27 42
409 14 38
410 14 38
411 14 38
412 14 38
413 32 -30
414 32 -30
415 32 -30
416 32 -30
417 21 4
418 21 4
419 21 4
420 21 4
421 21 4
422 2 12
423 2 12
424 2 12
425 2 21
426 2 21
427 2 21
428 22 33
429 22 33
430 22 33
431 22 33
432 12 -19
433 12 -19
434 12 -19
435 12 -19
436 9 -18
437 9 -18
438 9 -18
439 9 -18
440 9 -18
441 11 -22
442 11 -22
443 11 -22
444 11 -22
445 14 -24
446 14 -24
447 14 -24
448 14 -24
449 14 -24
450 14 7
451 14 7
452 14 7
453 18 8
454 18 8
455 18 8
456 26 17
457 26 17
458 22 13
459 22 13
460 22 13
461 21 2
462 21 2
463 21 2
464 20 19
465 20 19
466 20 19
467 20 19
468 -20 12
469 -20 12
470 -20 12
471 -20 12
472 -21 2
473 -21 2
474 -24 -4
475 -24 -4
476 -24 -4
477 -24 -4
478 -19 -13
479 -19 -13
480 -31 -17
481 -31 -17
482 -31 -17
483 -31 -17
484 -31 -17
485 -7 -17
486 -7 -17
487 -7 -17
488 -7 -17
489 -9 17
490 -9 17
491 -9 17
492 -9 17
493 -9 17
494 -9 0
495 -9 0
496 -9 0
497 -9 0
498 -4 32
499 -4 32
500 -20 -16
501 -13 -13
502 -17 -11
503 -17 -11
504 -9 -8
505 -9 -8
506 -9 -8
507 -9 -8
508 -9 -8
509 -10 -11
510 -13 -8
511 -13 -8
512 -10 -14
513 -10 -14
514 -16 -14
515 -15 -9
516 -15 -9
517 -15 -9
518 -15 -9
519 -15 -9
520 -17 -17
521 -17 -17
522 -17 -17
523 -17 -17
524 -17 -17
DEMAND_SECTION
1 0
2 20
3 20
4 20
5 10
6 200
7 100
8 100
9 20
10 20
11 20
12 20
13 20
14 20
15 20
16 10
17 200
18 10
19 100
20 20
21 20
22 10
23 100
24 20
25 20
26 20
27 20
28 10
29 200
30 20
31 10
32 100
33 10
34 20
35 20
36 10
37 100
38 20
39 20
40 20
41 20
42 10
43 200
44 20
45 20
46 20
47 20
48 10
49 200
50 20
51 10
52 200
53 10
54 100
55 100
56 20
57 20
58 10
59 20
60 10
61 400
62 10
63 20
64 20
65 20
66 20
67 10
68 200
69 20
70 20
71 20
72 20
73 20
74 20
75 20
76 20
77 20
78 20
79 20
80 20
81 100
82 20
83 20
84 20
85 100
86 200
87 20
88 20
89 20
90 20
91 20
92 20
93 20
94 10
95 100
96 20
97 20
98 10
99 100
100 20
101 20
102 20
103 20
104 20
105 100
106 20
107 20
108 20
109 20
110 10
111 100
112 10
113 100
114 20
115 200
116 20
117 10
118 200
119 20
120 20
121 20
122 100
123 20
124 20
125 20
126 10
127 20
128 20
129 20
130 20
131 20
132 20
133 20
134 10
135 100
136 20
137 20
138 10
139 100
140 20
141 20
142 20
143 20
144 20
145 10
146 200
147 20
148 20
149 20
150 10
151 100
152 20
153 10
154 100
155 10
156 100
157 20
158 20
159 20
160 100
161 20
162 20
163 10
164 200
165 20
166 20
167 10
168 100
169 20
170 20
171 20
172 10
173 100
174 20
175 20
176 20
177 20
178 100
179 100
180 20
181 20
182 20
183 10
184 100
185 20
186 10
187 100
188 20
189 20
190 20
191 20
192 10
193 200
194 20
195 20
196 20
197 20
198 10
199 20
200 20
201 10
202 20
203 20
204 20
205 20
206 10
207 100
208 20
209 20
210 20
211 100
212 20
213 20
214 20
215 100
216 20
217 100
218 20
219 20
220 20
221 20
222 10
223 200
224 20
225 10
226 200
227 20
228 20
229 20
230 20
231 100
232 20
233 20
234 20
235 20
236 10
237 20
238 100
239 20
240 100
241 20
242 20
243 20
244 10
245 20
246 20
247 20
248 20
249 10
250 100
251 10
252 100
253 20
254 20
255 20
256 20
257 200
258 20
259 20
260 20
261 20
262 10
263 20
264 10
265 20
266 20
267 20
268 100
269 20
270 20
271 20
272 10
273 100
274 20
275 20
276 20
277 100
278 20
279 20
280 20
281 20
282 20
283 20
284 20
285 10
286 200
287 10
288 200
289 20
290 20
291 20
292 10
293 200
294 20
295 10
296 100
297 10
298 100
299 20
300 20
301 20
302 20
303 20
304 20
305 20
306 20
307 10
308 20
309 20
310 20
311 20
312 100
313 20
314 20
315 20
316 200
317 100
318 10
319 20
320 20
321 20
322 20
323 10
324 20
325 20
326 10
327 20
328 20
329 10
330 20
331 20
332 20
333 10
334 100
335 20
336 20
337 20
338 20
339 100
340 20
341 20
342 20
343 10
344 200
345 20
346 20
347 20
348 10
349 200
350 100
351 20
352 20
353 20
354 200
355 100
356 100
357 20
358 10
359 100
360 20
361 20
362 20
363 20
364 10
365 100
366 20
367 20
368 100
369 20
370 20
371 20
372 20
373 20
374 20
375 20
376 20
377 20
378 20
379 20
380 10
381 100
382 20
383 20
384 20
385 20
386 200
387 20
388 20
389 20
390 20
391 20
392 10
393 100
394 20
395 10
396 100
397 20
398 20
399 20
400 20
401 10
402 100
403 20
404 20
405 20
406 20
407 10
408 200
409 200
410 20
411 20
412 10
413 200
414 20
415 20
416 10
417 200
418 100
419 20
420 20
421 20
422 20
423 20
424 20
425 20
426 20
427 10
428 100
429 20
430 20
431 10
432 200
433 20
434 20
435 10
436 20
437 20
438 20
439 20
440 10
441 20
442 20
443 20
444 20
445 100
446 20
447 20
448 20
449 20
450 100
451 20
452 10
453 100
454 20
455 20
456 20
457 10
458 200
459 20
460 10
461 20
462 20
463 20
464 200
465 20
466 20
467 20
468 100
469 20
470 20
471 20
472 100
473 10
474 20
475 20
476 20
477 10
478 400
479 10
480 200
481 100
482 20
483 20
484 10
485 200
486 20
487 20
488 20
489 20
490 20
491 20
492 20
493 10
494 100
495 20
496 20
497 10
498 20
499 10
500 10
501 20
502 200
503 20
504 200
505 20
506 20
507 20
508 10
509 200
510 100
511 10
512 100
513 20
514 100
515 20
516 20
517 20
518 20
519 10
520 100
521 20
522 20
523 20
524 10
DEPOT_SECTION
1
-1
EOF