SDVRP instances/p04/p04_00_tsplib0_splitx10_0.sol
523 -4 3 2 1 426 425 424 286 285 111 110 292 294 293 498 497 401 92 90 91 93 30 28 29 213 210 212 211 397 396 399 400 395 398 169 168 167 171 170 492 490 488 489 491 18 20 21 19 359 360 362 363 361 160 161 162 -17 16 249 250 431 434 432 433 442 441 440 443 445 447 444 448 446 114 116 115 251 253 254 252 255 324 323 325 159 53 179 182 181 180 384 383 382 381 380 365 366 364 -39 38 37 40 36 41 355 356 357 6 5 358 8 10 7 9 206 209 207 208 71 69 70 67 68 465 466 464 463 296 295 183 184 185 454 278 277 276 279 -43 46 44 47 42 45 503 508 59 58 511 512 326 328 327 150 151 152 332 330 331 329 229 228 227 226 377 378 379 376 158 155 156 157 485 487 484 486 130 131 132 129 133 223 224 222 -94 95 97 96 287 291 289 290 288 422 423 421 113 112 273 274 272 275 -134 137 136 135 216 217 220 218 221 219 31 32 370 371 367 369 368 108 105 104 106 107 109 118 120 119 117 263 262 281 280 283 282 284 75 73 72 74 462 460 461 177 420 419 417 418 416 56 57 54 55 451 450 -164 163 166 165 197 196 510 509 12 13 15 515 514 516 517 11 518 14 502 501 478 477 499 521 519 520 522 523 310 307 308 309 513 500 388 385 389 387 386 507 505 506 504 -178 76 79 77 78 247 248 244 245 246 98 100 99 409 411 408 410 430 429 427 428 407 127 126 128 300 301 302 303 125 123 121 124 122 298 299 297 455 456 102 101 103 457 459 458 453 452 449 -200 199 198 82 80 81 83 240 242 241 239 243 27 23 26 25 22 24 214 215 405 403 402 404 406 354 353 154 153 306 305 304 345 344 343 346 347 342 84 348 352 351 350 349 -238 237 467 469 470 468 52 51 202 203 204 201 205 338 340 339 341 87 89 86 88 85 472 471 193 194 195 192 61 60 496 494 493 495 -268 271 267 269 270 173 174 176 172 175 33 35 34 186 190 189 188 187 191 372 266 265 264 138 139 140 315 317 316 414 415 412 413 260 256 257 261 259 258 375 374 373 435 438 437 439 436 319 322 321 320 318 -391 390 474 473 476 475 236 49 50 48 479 482 483 480 481 144 142 141 143 312 313 314 311 225 62 63 64 65 66 335 336 333 334 337 148 147 149 146 145 234 233 231 232 235 230 393 392 394 0 





OBJ=
1053.238
BEST_KNOWN=
0.000